NAME : tsp35_15.183.tour
COMMENT : Length = 183
COMMENT : Found by LKH [Keld Helsgaun]
TYPE : TOUR
DIMENSION : 35
TOUR_SECTION
1
5
33
28
10
25
12
3
6
32
24
16
9
11
8
22
20
31
35
13
2
23
30
19
4
17
18
7
15
27
14
29
21
26
34
-1
EOF
